SAT
-72 83 69 54 -15 38 -32 136 162 -63 106 51 37 -100 82 -169 -76 -9 -35 -108 -84 -120 -28 -79 26 174 -77 115 -66 58 60 -23 103 153 -61 -13 -46 -145 -113 144 53 -124 128 73 -5 -55 50 41 95 -92 -45 42 161 2 -163 -47 96 -8 -10 135 -154 25 -19 -65 -24 -148 -49 16 -158 131 -168 -175 139 -142 121 -11 150 140 -86 157 -87 -88 -22 30 166 146 94 -101 -173 -20 119 -1 68 -78 -118 71 74 -44 -141 -171 -143 -99 156 93 91 33 -36 -117 102 152 -85 -149 39 -123 -6 -129 -90 -133 31 167 -43 -116 -75 -7 126 48 -4 160 64 89 -56 -97 170 -52 12 -125 109 -111 14 112 104 165 147 137 -107 127 -21 -98 134 -114 159 -18 -57 40 130 -151 -67 122 -155 70 105 17 110 -62 132 -34 -164 59 138 -3 172 80 29 81 27 0
